p ocr 255 261 425
1 256
3 257
4 256
5 256
5 257
6 258
7 256
7 258
7 261
8 258
8 259
8 264
9 265
9 266
9 268
10 267
10 268
10 269
10 271
10 272
10 273
11 274
12 273
12 274
13 274
13 277
14 277
15 273
15 275
15 280
16 277
16 281
16 282
17 278
17 281
17 282
17 284
19 283
20 283
20 285
22 283
22 285
22 286
23 284
23 285
27 288
28 291
29 287
29 291
30 290
30 292
30 293
30 294
31 291
31 292
31 293
31 294
33 295
33 297
34 298
36 298
36 299
37 297
37 299
38 296
38 299
38 300
39 297
41 300
42 302
42 304
42 306
43 304
44 306
44 307
46 305
46 307
47 308
48 309
48 311
50 312
52 310
52 314
53 310
54 312
56 314
57 314
58 313
58 315
60 313
60 316
60 318
61 315
61 316
62 315
62 317
63 316
63 321
64 318
64 319
64 321
65 317
65 319
65 323
65 325
66 322
66 326
67 322
68 324
68 325
68 327
68 328
68 330
69 326
69 327
70 327
70 330
70 331
71 330
71 333
71 338
72 337
73 340
73 343
74 338
74 339
75 340
75 341
76 341
76 343
76 345
78 344
79 344
80 348
81 345
81 346
81 347
82 346
84 351
85 350
85 351
86 350
90 351
90 352
91 351
92 351
93 353
93 354
94 352
94 354
95 355
96 353
97 355
98 352
98 354
99 354
99 355
100 353
101 356
101 357
101 358
103 358
103 359
104 356
104 358
104 360
106 357
106 359
106 363
107 362
107 363
108 360
109 361
110 362
111 365
112 366
113 363
113 364
113 365
114 366
114 367
116 367
117 368
118 366
118 369
119 368
122 368
123 368
123 369
125 370
125 372
127 376
128 376
129 373
129 376
129 378
130 379
132 376
132 380
132 383
133 378
133 381
133 383
134 382
134 383
134 386
134 387
135 386
135 387
136 385
136 389
137 386
137 388
137 390
137 392
137 394
138 389
138 392
139 388
139 389
139 391
139 394
139 395
140 396
141 393
142 397
143 398
144 395
144 399
145 396
145 400
146 397
146 399
146 401
147 398
148 400
148 401
149 399
149 403
150 400
150 401
150 404
151 400
151 401
152 402
152 403
152 406
153 403
153 404
153 407
154 407
157 406
158 409
158 410
159 407
159 411
160 406
160 407
161 410
161 413
162 409
162 411
162 415
163 409
163 414
163 416
164 413
165 416
166 414
166 418
167 419
168 416
168 418
169 417
169 422
170 424
171 424
171 425
172 421
172 422
173 424
173 426
173 427
174 427
174 428
175 424
175 427
176 426
176 427
176 429
177 427
178 430
179 429
179 432
179 433
179 434
180 431
180 434
181 431
181 432
181 436
183 434
183 436
183 437
184 434
184 437
185 436
185 439
186 436
186 438
187 437
187 438
187 439
187 443
187 444
188 443
188 445
188 447
189 448
189 449
189 450
189 451
190 448
190 452
191 449
191 450
191 451
191 452
191 453
194 453
196 453
196 454
197 456
198 457
199 458
200 455
200 456
201 454
201 457
201 459
202 456
203 463
204 460
205 458
205 460
205 461
206 460
206 462
207 467
208 464
208 465
208 467
209 468
210 465
210 466
210 469
211 468
211 470
214 468
215 470
216 469
216 470
216 473
217 472
219 471
219 475
219 476
220 472
220 474
220 476
223 474
223 479
224 476
224 478
226 478
226 479
226 480
226 481
226 482
227 482
227 483
228 479
228 480
228 481
228 483
229 484
230 485
231 482
231 485
231 486
231 488
232 482
232 487
234 485
234 491
235 490
235 491
236 488
236 492
237 489
238 489
239 492
240 491
244 494
244 495
245 495
246 493
246 494
250 497
250 498
251 496
252 496
252 497
252 498
252 499
252 500
253 496
253 497
253 499
253 501
255 498
255 500
255 502
255 504
255 506